734,379
778,476
436,887
521,325
718,169
444,369
829,258
639,140
1023,517
593,420
548,474
448,173
488,672
207,331
810,7
698,382
463,564
339,295
1184,485
415,448
762,566
545,673
453,332
602,909
948,542
838,891
918,443
926,-75
524,-79
560,494
300,25
709,415
963,794
822,600
521,487
317,142
778,336
575,352
